(set-info :smt-lib-version 2.6)
(set-logic UF)
(set-info :source |Benchmarks from the paper: "Extending Sledgehammer with SMT Solvers" by Jasmin Blanchette, Sascha Bohme, and Lawrence C. Paulson, CADE 2011.  Translated to SMT2 by Andrew Reynolds and Morgan Deters.|)
(set-info :category "industrial")
(set-info :status unknown)
(declare-sort S1 0)
(declare-sort S2 0)
(declare-sort S3 0)
(declare-sort S4 0)
(declare-sort S5 0)
(declare-sort S6 0)
(declare-sort S7 0)
(declare-sort S8 0)
(declare-sort S9 0)
(declare-sort S10 0)
(declare-sort S11 0)
(declare-fun f1 () S1)
(declare-fun f2 () S1)
(declare-fun f3 (S3 S2) S2)
(declare-fun f4 () S3)
(declare-fun f5 () S3)
(declare-fun f6 (S4 S2) S3)
(declare-fun f7 () S4)
(declare-fun f8 (S5 S6) S2)
(declare-fun f9 () S5)
(declare-fun f10 (S7 S6) S6)
(declare-fun f11 () S7)
(declare-fun f12 () S7)
(declare-fun f13 () S6)
(declare-fun f14 (S8 S9) S9)
(declare-fun f15 (S9) S8)
(declare-fun f16 (S3) S8)
(declare-fun f17 (S10 S2) S9)
(declare-fun f18 (S2) S10)
(declare-fun f19 () S2)
(declare-fun f20 () S2)
(declare-fun f21 () S9)
(declare-fun f22 (S11 S6) S7)
(declare-fun f23 () S11)
(declare-fun f24 () S7)
(declare-fun f25 () S6)
(declare-fun f26 (S9) S8)
(declare-fun f27 (S9 S2) S1)
(declare-fun f28 (S2 S9) S1)
(assert (not (= f1 f2)))
(assert (forall ((?v0 S2)) (= (f3 f4 ?v0) (f3 f5 (f3 (f6 f7 (f8 f9 (f10 f11 (f10 f12 f13)))) ?v0)))))
(assert (let ((?v_0 (f17 (f18 f19) f20))) (not (= (f14 (f15 (f14 (f16 (f6 f7 (f8 f9 (f10 f11 (f10 f12 f13))))) ?v_0)) (f14 (f16 f4) ?v_0)) f21))))
(assert (= (f3 f5 (f3 f5 f19)) (f8 f9 (f10 f11 (f10 f12 f13)))))
(assert (= (f8 f9 (f10 f11 (f10 f12 f13))) (f3 f5 (f3 f5 f19))))
(assert (= (f8 f9 (f10 f12 f13)) (f3 f5 f19)))
(assert (= (f8 f9 (f10 f12 (f10 f12 f13))) (f3 f5 (f3 f5 (f3 f5 f19)))))
(assert (forall ((?v0 S6)) (= (f10 (f22 f23 ?v0) (f10 f24 (f10 f12 f13))) ?v0)))
(assert (forall ((?v0 S6)) (= (f10 (f22 f23 (f10 f24 (f10 f12 f13))) ?v0) ?v0)))
(assert (forall ((?v0 S2) (?v1 S2)) (= (f14 (f16 f5) (f17 (f18 ?v0) ?v1)) (f17 (f18 (f3 f5 ?v0)) (f3 f5 ?v1)))))
(assert (forall ((?v0 S2)) (= (f17 (f18 ?v0) f19) f21)))
(assert (forall ((?v0 S2) (?v1 S2) (?v2 S2)) (= (f14 (f15 (f17 (f18 ?v0) ?v1)) (f17 (f18 ?v1) ?v2)) f21)))
(assert (forall ((?v0 S2) (?v1 S2)) (let ((?v_0 (f3 f5 f19))) (= (= (f3 (f6 f7 ?v0) ?v1) ?v_0) (and (= ?v0 ?v_0) (= ?v1 ?v_0))))))
(assert (= f19 (f8 f9 f13)))
(assert (= (f8 f9 f13) f19))
(assert (forall ((?v0 S6)) (= (f10 (f22 f23 f13) ?v0) f13)))
(assert (forall ((?v0 S6) (?v1 S6)) (= (f10 (f22 f23 (f10 f11 ?v0)) ?v1) (f10 f11 (f10 (f22 f23 ?v0) ?v1)))))
(assert (forall ((?v0 S6) (?v1 S6)) (= (= (f10 f24 ?v0) (f10 f24 ?v1)) (= ?v0 ?v1))))
(assert (forall ((?v0 S6) (?v1 S2)) (let ((?v_0 (f8 f9 ?v0))) (= (= ?v_0 ?v1) (= ?v1 ?v_0)))))
(assert (forall ((?v0 S6) (?v1 S6)) (let ((?v_0 (f10 f24 ?v0))) (= (= ?v_0 ?v1) (= ?v1 ?v_0)))))
(assert (forall ((?v0 S6) (?v1 S6)) (= (= (f10 f12 ?v0) (f10 f12 ?v1)) (= ?v0 ?v1))))
(assert (= (= f13 f13) true))
(assert (forall ((?v0 S6) (?v1 S6)) (= (= (f10 f11 ?v0) (f10 f11 ?v1)) (= ?v0 ?v1))))
(assert (forall ((?v0 S2) (?v1 S2)) (=> (= (f3 f5 ?v0) (f3 f5 ?v1)) (= ?v0 ?v1))))
(assert (forall ((?v0 S2) (?v1 S2)) (= (= (f3 f5 ?v0) (f3 f5 ?v1)) (= ?v0 ?v1))))
(assert (forall ((?v0 S2)) (not (= (f3 f5 ?v0) ?v0))))
(assert (forall ((?v0 S2)) (not (= ?v0 (f3 f5 ?v0)))))
(assert (forall ((?v0 S2) (?v1 S2) (?v2 S2)) (let ((?v_0 (f6 f7 ?v0))) (= (f3 (f6 f7 (f3 ?v_0 ?v1)) ?v2) (f3 ?v_0 (f3 (f6 f7 ?v1) ?v2))))))
(assert (forall ((?v0 S2) (?v1 S2)) (= (f3 (f6 f7 ?v0) ?v1) (f3 (f6 f7 ?v1) ?v0))))
(assert (forall ((?v0 S6) (?v1 S6) (?v2 S6)) (= (f10 (f22 f23 (f10 f24 ?v0)) (f10 (f22 f23 (f10 f24 ?v1)) ?v2)) (f10 (f22 f23 (f10 f24 (f10 (f22 f23 ?v0) ?v1))) ?v2))))
(assert (forall ((?v0 S6) (?v1 S6)) (= (f10 (f22 f23 (f10 f24 ?v0)) (f10 f24 ?v1)) (f10 f24 (f10 (f22 f23 ?v0) ?v1)))))
(assert (forall ((?v0 S6) (?v1 S6)) (= (f10 f24 (f10 (f22 f23 ?v0) ?v1)) (f10 (f22 f23 (f10 f24 ?v0)) (f10 f24 ?v1)))))
(assert (forall ((?v0 S2)) (=> (= (f3 f5 ?v0) f19) false)))
(assert (forall ((?v0 S2)) (=> (= f19 (f3 f5 ?v0)) false)))
(assert (forall ((?v0 S2)) (not (= (f3 f5 ?v0) f19))))
(assert (forall ((?v0 S2)) (not (= (f3 f5 ?v0) f19))))
(assert (forall ((?v0 S2)) (not (= f19 (f3 f5 ?v0)))))
(assert (forall ((?v0 S2)) (not (= f19 (f3 f5 ?v0)))))
(assert (forall ((?v0 S6)) (= (= (f10 f12 ?v0) f13) false)))
(assert (forall ((?v0 S6)) (= (= f13 (f10 f12 ?v0)) false)))
(assert (forall ((?v0 S6) (?v1 S6)) (= (= (f10 f12 ?v0) (f10 f11 ?v1)) false)))
(assert (forall ((?v0 S6) (?v1 S6)) (= (= (f10 f11 ?v0) (f10 f12 ?v1)) false)))
(assert (forall ((?v0 S6)) (= (= (f10 f11 ?v0) f13) (= ?v0 f13))))
(assert (forall ((?v0 S6)) (= (= f13 (f10 f11 ?v0)) (= f13 ?v0))))
(assert (= (f10 f11 f13) f13))
(assert (forall ((?v0 S2) (?v1 S2) (?v2 S2)) (= (= (f3 (f6 f7 ?v0) ?v1) (f3 (f6 f7 ?v2) ?v1)) (or (= ?v0 ?v2) (= ?v1 f19)))))
(assert (forall ((?v0 S2) (?v1 S2) (?v2 S2)) (let ((?v_0 (f6 f7 ?v0))) (= (= (f3 ?v_0 ?v1) (f3 ?v_0 ?v2)) (or (= ?v1 ?v2) (= ?v0 f19))))))
(assert (forall ((?v0 S2) (?v1 S2)) (= (= (f3 (f6 f7 ?v0) ?v1) f19) (or (= ?v0 f19) (= ?v1 f19)))))
(assert (forall ((?v0 S2)) (= (f3 (f6 f7 ?v0) f19) f19)))
(assert (forall ((?v0 S2)) (= (f3 (f6 f7 f19) ?v0) f19)))
(assert (forall ((?v0 S2) (?v1 S2) (?v2 S2)) (let ((?v_0 (f6 f7 (f3 f5 ?v0)))) (= (= (f3 ?v_0 ?v1) (f3 ?v_0 ?v2)) (= ?v1 ?v2)))))
(assert (= (f8 f9 f13) f19))
(assert (= (f10 f24 f13) f25))
(assert (= (f10 f24 f13) f25))
(assert (= f25 (f10 f24 f13)))
(assert (forall ((?v0 S2)) (let ((?v_0 (f6 f7 (f8 f9 (f10 f11 (f10 f12 f13))))) (?v_1 (f18 f19))) (let ((?v_2 (f17 ?v_1 ?v0))) (= (f17 ?v_1 (f3 ?v_0 ?v0)) (f14 (f26 (f14 (f16 ?v_0) ?v_2)) (f14 (f16 f4) ?v_2)))))))
(assert (forall ((?v0 S9) (?v1 S9) (?v2 S2)) (=> (= (f27 (f14 (f15 ?v0) ?v1) ?v2) f1) (=> (=> (= (f27 ?v0 ?v2) f1) (=> (= (f27 ?v1 ?v2) f1) false)) false))))
(assert (forall ((?v0 S2) (?v1 S9) (?v2 S9)) (=> (= (f28 ?v0 (f14 (f15 ?v1) ?v2)) f1) (=> (=> (= (f28 ?v0 ?v1) f1) (=> (= (f28 ?v0 ?v2) f1) false)) false))))
(assert (forall ((?v0 S2) (?v1 S9) (?v2 S9)) (=> (= (f28 ?v0 ?v1) f1) (=> (= (f28 ?v0 ?v2) f1) (= (f28 ?v0 (f14 (f15 ?v1) ?v2)) f1)))))
(assert (forall ((?v0 S9) (?v1 S2) (?v2 S9)) (=> (= (f27 ?v0 ?v1) f1) (=> (= (f27 ?v2 ?v1) f1) (= (f27 (f14 (f15 ?v0) ?v2) ?v1) f1)))))
(assert (forall ((?v0 S2) (?v1 S3) (?v2 S2) (?v3 S9)) (=> (= ?v0 (f3 ?v1 ?v2)) (=> (= (f28 ?v2 ?v3) f1) (= (f28 ?v0 (f14 (f16 ?v1) ?v3)) f1)))))
(assert (forall ((?v0 S2)) (=> (= (f28 ?v0 f21) f1) false)))
(assert (forall ((?v0 S2)) (=> (=> (= ?v0 f19) false) (=> (forall ((?v1 S2)) (=> (= ?v0 (f3 f5 ?v1)) false)) false))))
(assert (forall ((?v0 S9) (?v1 S2)) (=> (= (f27 ?v0 ?v1) f1) (=> (forall ((?v2 S2)) (=> (= (f27 ?v0 (f3 f5 ?v2)) f1) (= (f27 ?v0 ?v2) f1))) (= (f27 ?v0 f19) f1)))))
(assert (forall ((?v0 S9) (?v1 S2)) (=> (= (f27 ?v0 f19) f1) (=> (forall ((?v2 S2)) (=> (= (f27 ?v0 ?v2) f1) (= (f27 ?v0 (f3 f5 ?v2)) f1))) (= (f27 ?v0 ?v1) f1)))))
(assert (forall ((?v0 S2)) (=> (not (= ?v0 f19)) (exists ((?v1 S2)) (= ?v0 (f3 f5 ?v1))))))
(assert (forall ((?v0 S2) (?v1 S9) (?v2 S9)) (=> (=> (not (= (f28 ?v0 ?v1) f1)) (= (f28 ?v0 ?v2) f1)) (= (f28 ?v0 (f14 (f26 ?v2) ?v1)) f1))))
(assert (forall ((?v0 S9) (?v1 S2) (?v2 S9)) (=> (=> (not (= (f27 ?v0 ?v1) f1)) (= (f27 ?v2 ?v1) f1)) (= (f27 (f14 (f26 ?v2) ?v0) ?v1) f1))))
(check-sat)
(exit)
